n = 6;
r = 1;
d = 1;

/*

1 -- 2 -- 3
|         |
6 -- 5 -- 4

*/

graph = [| 0, 1, 0, 0, 0, 1
         | 1, 0, 1, 0, 0, 0
         | 0, 1, 0, 1, 0, 0
         | 0, 0, 1, 0, 1, 0
         | 0, 0, 0, 1, 0, 1
         | 1, 0, 0, 0, 1, 0 |];